c 174_3_checker.cnf
c
c field = 174
c formula set type = 3_checker
c
p cnf 4 58
340 
342 
344 
-338 
341 
343 
345 
-339 
340 
342 
344 
-348 
341 
343 
345 
-349 
342 
344 
348 
-340 
343 
345 
349 
-341 
342 
344 
348 
-350 
343 
345 
349 
-351 
344 
348 
350 
-342 
345 
349 
351 
-343 
344 
348 
350 
-352 
345 
349 
351 
-353 
348 
350 
352 
-344 
349 
351 
353 
-345 
348 
350 
352 
-354 
349 
351 
353 
-355 
256 
286 
316 
-226 
257 
287 
317 
-227 
256 
286 
316 
-376 
257 
287 
317 
-377 
286 
316 
376 
-256 
287 
317 
377 
-257 
286 
316 
376 
-406 
287 
317 
377 
-407 
316 
376 
406 
-286 
317 
377 
407 
-287 
316 
376 
406 
-436 
317 
377 
407 
-437 
376 
406 
436 
-316 
377 
407 
437 
-317 
250 
282 
314 
-218 
251 
283 
315 
-219 
250 
282 
314 
-378 
251 
283 
315 
-379 
282 
314 
378 
-250 
283 
315 
379 
-251 
282 
314 
378 
-410 
283 
315 
379 
-411 
314 
378 
410 
-282 
315 
379 
411 
-283 
314 
378 
410 
-442 
315 
379 
411 
-443 
378 
410 
442 
-314 
379 
411 
443 
-315 
262 
290 
318 
-234 
263 
291 
319 
-235 
262 
290 
318 
-374 
263 
291 
319 
-375 
290 
318 
374 
-262 
291 
319 
375 
-263 
290 
318 
374 
-402 
291 
319 
375 
-403 
318 
374 
402 
-290 
319 
375 
403 
-291 
318 
374 
402 
-430 
319 
375 
403 
-431 
374 
402 
430 
-318 
375 
403 
431 
-319 
